max_width = 15;
n_blocks = 25;
width = [5, 4, 3, 2, 4, 2, 4, 3, 3, 2, 2, 3, 2, 3, 2, 4, 2, 4, 2, 5, 5, 3, 2, 4, 2];
height = [13, 13, 13, 13, 12, 12, 11, 11, 11, 11, 11, 9, 9, 7, 7, 6, 6, 5, 5, 3, 3, 2, 2, 1, 1];
